
******************************************************************************
This program contains Ipopt, a library for large-scale nonlinear optimization.
 Ipopt is released as open source code under the Eclipse Public License (EPL).
         For more information visit http://projects.coin-or.org/Ipopt

This version of Ipopt was compiled from source code available at
    https://github.com/IDAES/Ipopt as part of the Institute for the Design of
    Advanced Energy Systems Process Systems Engineering Framework (IDAES PSE
    Framework) Copyright (c) 2018-2019. See https://github.com/IDAES/idaes-pse.

This version of Ipopt was compiled using HSL, a collection of Fortran codes
    for large-scale scientific computation.  All technical papers, sales and
    publicity material resulting from use of the HSL codes within IPOPT must
    contain the following acknowledgement:
        HSL, a collection of Fortran codes for large-scale scientific
        computation. See http://www.hsl.rl.ac.uk.
******************************************************************************

This is Ipopt version 3.13.2, running with linear solver ma27.

Number of nonzeros in equality constraint Jacobian...:      808
Number of nonzeros in inequality constraint Jacobian.:        0
Number of nonzeros in Lagrangian Hessian.............:      702

Total number of variables............................:      351
                     variables with only lower bounds:      108
                variables with lower and upper bounds:      189
                     variables with only upper bounds:        0
Total number of equality constraints.................:      350
Total number of inequality constraints...............:        0
        inequality constraints with only lower bounds:        0
   inequality constraints with lower and upper bounds:        0
        inequality constraints with only upper bounds:        0

iter    objective    inf_pr   inf_du lg(mu)  ||d||  lg(rg) alpha_du alpha_pr  ls
   0  0.0000000e+00 4.88e-01 4.44e-16  -1.0 0.00e+00    -  0.00e+00 0.00e+00   0
   1  3.9914040e+00 1.86e+00 3.64e+04  -1.0 2.86e+05    -  4.70e-01 4.30e-01h  1
   2  4.4957706e+00 1.77e+00 3.48e+04  -1.0 1.89e+05    -  7.72e-01 4.08e-02h  1
   3  5.0548567e+00 1.70e+00 3.35e+04  -1.0 2.52e+05    -  7.73e-01 4.25e-02h  1
   4  3.3256447e+01 1.73e-01 4.05e+03  -1.0 2.45e+05    -  7.85e-01 9.90e-01h  1
   5  3.9723029e+01 2.53e-03 2.66e+03  -1.0 3.57e+04    -  9.65e-01 9.90e-01h  1
   6  3.9889383e+01 3.39e-05 2.97e+01  -1.0 8.92e+02    -  9.90e-01 9.90e-01h  1
   7  3.9890884e+01 3.29e-05 1.83e+07  -1.0 5.11e+02    -  9.90e-01 3.09e-02f  6
   8  3.9894351e+01 3.19e-05 3.67e+07  -1.0 1.20e+03    -  9.93e-01 3.09e-02f  6
   9  4.0003651e+01 3.77e-05 5.71e+05  -1.0 1.19e+03    -  1.00e+00 9.90e-01H  1
iter    objective    inf_pr   inf_du lg(mu)  ||d||  lg(rg) alpha_du alpha_pr  ls
  10  4.0004136e+01 4.00e-07 2.03e+07  -1.0 5.15e+00    -  1.00e+00 9.90e-01h  1
  11  4.0004137e+01 4.00e-09 2.03e+09  -1.0 1.58e-02    -  1.00e+00 9.90e-01h  1
  12  4.0004137e+01 4.00e-11 2.03e+11  -1.0 1.58e-04    -  1.00e+00 9.90e-01h  1
In iteration 12, 27 Slacks too small, adjusting variable bounds
  13  4.0004137e+01 1.44e-12 2.03e+13  -1.0 1.69e-06    -  1.00e+00 9.90e-01h  1
  14  4.0004137e+01 7.16e-12 1.25e-01  -1.0 2.36e-07    -  1.00e+00 1.00e+00s 22
  15  3.9891079e+01 6.26e-04 1.33e+00  -9.0 1.40e+03    -  8.76e-01 8.76e-01s 22
  16  3.9890156e+01 5.62e-09 3.98e-04  -9.0 9.54e+00    -  1.00e+00 1.00e+00s 22
  17  3.9890156e+01 3.22e-12 3.26e-09  -9.0 2.64e-05    -  1.00e+00 1.00e+00s 22

Number of Iterations....: 17

                                   (scaled)                 (unscaled)
Objective...............:   3.9890156132782529e+01    3.9890156132782529e+01
Dual infeasibility......:   3.2596290111541748e-09    3.2596290111541748e-09
Constraint violation....:   3.2182034814809413e-12    3.2182034814809413e-12
Complementarity.........:   9.0913403192852776e-10    9.0913403192852776e-10
Overall NLP error.......:   2.7009570989527790e-11    3.2596290111541748e-09


Number of objective function evaluations             = 55
Number of objective gradient evaluations             = 18
Number of equality constraint evaluations            = 55
Number of inequality constraint evaluations          = 0
Number of equality constraint Jacobian evaluations   = 18
Number of inequality constraint Jacobian evaluations = 0
Number of Lagrangian Hessian evaluations             = 17
Total CPU secs in IPOPT (w/o function evaluations)   =      0.037
Total CPU secs in NLP function evaluations           =      0.506

EXIT: Optimal Solution Found.
